# Solution for model F-JSSP-SDST
# Objective value = 5953
B0(12) 1
B1(22) 0
B2(24) 0
B3(27) 0
B4(24) 1
B5(35) 0
B6(27) 1
B7(32) 0
B8(35) 0
B9(34) 0
B10(27) 1
B11(12) 0
B12(26) 1
B13(26) 0
B14(19) 1
B15(35) 0
B16(29) 1
B17(33) 0
B18(34) 1
B19(32) 0
B20(12) 0
B21(20) 1
B22(33) 0
B23(25) 0
B24(27) 1
B25(28) 0
B26(33) 1
B27(31) 0
B28(31) 0
B29(32) 1
B30(11) 0
B31(19) 1
B32(23) 0
B33(33) 1
B34(24) 0
B35(30) 1
B36(33) 0
B37(30) 1
B38(22) 0
B39(24) 0
B40(12) 1
B41(31) 1
B42(27) 0
B43(35) 0
B44(36) 0
B45(31) 0
B46(23) 1
B47(26) 1
B48(31) 0
B49(22) 0
B50(28) 0
B51(30) 1
B52(30) 0
B53(28) 1
B54(35) 0
B55(36) 0
B56(29) 0
B57(33) 1
B58(28) 0
B59(33) 1
B60(26) 1
B61(20) 0
B62(27) 1
B63(36) 0
B64(38) 1
B65(29) 0
B66(33) 0
B67(32) 0
B68(36) 1
B69(24) 0
B70(24) 1
B71(26) 1
B72(32) 0
B73(33) 1
B74(27) 0
B75(30) 0
B76(29) 0
B77(25) 1
B78(0) 0
B79(2) 0
B80(0) 0
B81(0) 0
B82(4) 0
B83(4) 1
B84(0) 0
B85(0) 0
B86(4) 1
B87(2) 0
B88(0) 0
B89(0) 0
B90(4) 1
B91(2) 0
B92(0) 0
B93(0) 0
B94(6) 1
B95(0) 0
B96(2) 1
B97(0) 0
B98(4) 0
B99(2) 0
B100(0) 0
B101(0) 0
B102(4) 0
B103(2) 0
B104(0) 0
B105(0) 0
B106(2) 0
B107(0) 0
B108(0) 0
B109(0) 0
B110(2) 1
B111(0) 0
B112(4) 0
B113(2) 0
B114(0) 0
B115(2) 1
B116(2) 0
B117(2) 0
B118(2) 1
B119(4) 0
B120(2) 0
B121(2) 0
B122(2) 1
B123(0) 0
B124(2) 0
B125(0) 0
B126(2) 0
B127(4) 0
B128(2) 1
B129(2) 0
B130(4) 1
B131(2) 0
B132(2) 0
B133(4) 0
B134(2) 0
B135(0) 0
B136(2) 0
B137(2) 0
B138(2) 0
B139(0) 0
B140(2) 0
B141(2) 0
B142(0) 0
B143(4) 1
B144(0) 0
B145(2) 0
B146(0) 0
B147(0) 0
B148(4) 0
B149(4) 0
B150(0) 0
B151(4) 1
B152(4) 0
B153(2) 0
B154(0) 0
B155(2) 1
B156(2) 1
B157(2) 0
B158(0) 0
B159(6) 0
B160(2) 0
B161(2) 1
B162(2) 1
B163(4) 0
B164(4) 0
B165(4) 0
B166(0) 0
B167(2) 0
B168(4) 0
B169(4) 0
B170(2) 0
B171(2) 0
B172(4) 0
B173(2) 0
B174(0) 0
B175(2) 1
B176(2) 1
B177(0) 0
B178(0) 0
B179(0) 0
B180(4) 1
B181(2) 0
B182(0) 0
B183(2) 0
B184(2) 0
B185(4) 0
B186(0) 0
B187(0) 0
B188(2) 1
B189(2) 1
B190(0) 0
B191(2) 0
B192(2) 0
B193(2) 0
B194(0) 0
B195(0) 0
B196(4) 0
B197(2) 0
B198(0) 0
B199(0) 0
B200(4) 1
B201(2) 0
B202(0) 0
B203(2) 0
B204(4) 0
B205(4) 0
B206(0) 0
B207(0) 0
B208(0) 0
B209(0) 0
B210(0) 0
B211(2) 0
B212(0) 0
B213(0) 0
B214(2) 0
B215(2) 0
B216(0) 0
B217(0) 0
B218(2) 0
B219(2) 0
B220(0) 0
B221(0) 0
B222(4) 0
B223(0) 0
B224(0) 0
B225(0) 0
B226(2) 0
B227(2) 0
B228(0) 0
B229(0) 0
B230(2) 0
B231(2) 0
B232(0) 0
B233(0) 0
B234(2) 0
B235(0) 0
B236(0) 0
B237(0) 0
B238(0) 0
B239(0) 0
B240(0) 0
B241(0) 0
B242(2) 1
B243(0) 0
B244(0) 0
B245(0) 0
B246(2) 1
B247(2) 0
B248(0) 0
B249(0) 0
B250(2) 1
B251(2) 0
B252(0) 0
B253(0) 0
B254(4) 1
B255(0) 0
B256(2) 0
B257(0) 0
B258(4) 0
B259(2) 0
B260(0) 0
B261(0) 0
B262(4) 1
B263(2) 0
B264(0) 0
B265(0) 0
B266(2) 0
B267(0) 0
B268(0) 0
B269(0) 0
B270(0) 0
B271(0) 0
B272(0) 0
B273(0) 0
B274(0) 0
B275(0) 0
B276(0) 0
B277(4) 0
B278(0) 0
B279(2) 0
B280(4) 0
B281(4) 0
B282(0) 0
B283(2) 0
B284(2) 0
B285(4) 0
B286(0) 0
B287(4) 0
B288(4) 0
B289(2) 0
B290(0) 0
B291(2) 0
B292(6) 0
B293(2) 0
B294(0) 0
B295(2) 0
B296(6) 1
B297(4) 0
B298(0) 0
B299(4) 0
B300(6) 0
B301(4) 0
B302(0) 0
B303(0) 0
B304(0) 0
B305(0) 0
B306(0) 0
B307(0) 0
B308(4) 1
B309(0) 0
B310(0) 0
B311(2) 0
B312(2) 0
B313(2) 0
B314(0) 0
B315(2) 1
B316(0) 0
B317(2) 0
B318(0) 0
B319(4) 1
B320(2) 0
B321(0) 0
B322(0) 0
B323(2) 0
B324(4) 0
B325(2) 0
B326(0) 0
B327(2) 0
B328(4) 0
B329(4) 0
B330(0) 0
B331(2) 0
B332(4) 0
B333(2) 0
B334(0) 0
B335(0) 0
B336(0) 0
B337(0) 0
B338(0) 0
B339(0) 0
B340(0) 0
B341(0) 0
B342(0) 0
B343(0) 0
B344(0) 0
B345(0) 0
B346(4) 1
B347(0) 0
B348(0) 0
B349(0) 0
B350(4) 1
B351(0) 0
B352(2) 0
B353(0) 0
B354(2) 0
B355(0) 0
B356(0) 0
B357(0) 0
B358(2) 1
B359(0) 0
B360(0) 0
B361(0) 0
B362(0) 0
B363(0) 0
B364(0) 0
B365(0) 0
B366(0) 0
B367(0) 0
B368(0) 0
B369(0) 0
B370(0) 0
B371(0) 0
B372(0) 0
B373(0) 0
B374(0) 0
B375(0) 0
B376(2) 0
B377(2) 0
B378(0) 0
B379(2) 0
B380(2) 0
B381(0) 0
B382(2) 0
B383(4) 0
B384(0) 0
B385(2) 0
B386(4) 1
B387(4) 0
B388(2) 0
B389(4) 0
B390(2) 0
B391(2) 0
B392(2) 0
B393(2) 0
B394(4) 0
B395(0) 0
B396(2) 0
B397(2) 0
B398(0) 0
B399(0) 0
B400(0) 0
B401(0) 0
B402(0) 0
B403(0) 0
B404(0) 0
B405(0) 0
B406(0) 0
B407(2) 1
B408(0) 0
B409(2) 1
B410(0) 0
B411(2) 1
B412(4) 0
B413(4) 1
B414(0) 0
B415(4) 0
B416(4) 0
B417(4) 0
B418(2) 1
B419(4) 0
B420(4) 0
B421(2) 0
B422(0) 0
B423(2) 0
B424(4) 0
B425(2) 0
B426(2) 0
B427(4) 1
B428(4) 0
B429(2) 1
B430(0) 0
B431(0) 0
B432(0) 0
B433(0) 0
B434(0) 0
B435(0) 0
B436(0) 0
B437(0) 0
B438(0) 0
B439(2) 1
B440(2) 0
B441(0) 0
B442(0) 0
B443(0) 0
B444(2) 1
B445(2) 1
B446(0) 0
B447(2) 1
B448(2) 0
B449(2) 0
B450(0) 0
B451(0) 0
B452(4) 1
B453(2) 1
B454(0) 0
B455(0) 0
B456(4) 0
B457(2) 0
B458(0) 0
B459(2) 1
B460(4) 0
B461(4) 0
B462(0) 0
B463(0) 0
B464(0) 0
B465(0) 0
B466(0) 0
B467(0) 0
B468(0) 0
B469(0) 0
B470(0) 0
B471(0) 0
B472(0) 0
B473(0) 0
B474(0) 0
B475(0) 0
B476(0) 0
B477(0) 0
B478(4) 0
B479(0) 0
B480(2) 0
B481(0) 0
B482(2) 0
B483(0) 0
B484(0) 0
B485(0) 0
B486(2) 0
B487(0) 0
B488(0) 0
B489(0) 0
B490(0) 0
B491(0) 0
B492(0) 0
B493(0) 0
B494(0) 0
B495(0) 0
B496(0) 0
B497(0) 0
B498(0) 0
B499(0) 0
B500(0) 0
B501(0) 0
B502(0) 0
B503(0) 0
B504(0) 0
B505(0) 0
B506(0) 0
B507(0) 0
B508(0) 0
B509(2) 0
B510(2) 0
B511(2) 0
B512(2) 0
B513(0) 0
B514(2) 0
B515(4) 1
B516(2) 0
B517(0) 0
B518(2) 1
B519(4) 1
B520(2) 0
B521(2) 0
B522(2) 1
B523(2) 0
B524(2) 0
B525(0) 0
B526(0) 0
B527(0) 0
B528(0) 0
B529(0) 0
B530(0) 0
B531(0) 0
B532(0) 0
B533(0) 0
B534(0) 0
B535(0) 0
B536(0) 0
B537(0) 0
B538(0) 0
B539(0) 0
B540(0) 0
B541(2) 0
B542(0) 0
B543(2) 0
B544(2) 0
B545(4) 0
B546(2) 1
B547(2) 0
B548(2) 0
B549(2) 0
B550(0) 0
B551(0) 0
B552(2) 0
B553(0) 0
B554(2) 0
B555(2) 0
B556(2) 0
B557(2) 0
B558(0) 0
B559(0) 0
B560(0) 0
B561(0) 0
B562(0) 0
B563(0) 0
B564(0) 0
B565(0) 0
B566(0) 0
B567(0) 0
B568(0) 0
B569(0) 0
B570(0) 0
B571(2) 1
B572(2) 1
B573(0) 0
B574(0) 0
B575(2) 0
B576(4) 0
B577(2) 0
B578(0) 0
B579(2) 0
B580(4) 0
B581(0) 0
B582(0) 0
B583(2) 0
B584(4) 1
B585(2) 0
B586(0) 0
B587(4) 0
B588(4) 1
B589(2) 0
B590(0) 0
B591(0) 0
B592(0) 0
B593(0) 0
B594(0) 0
B595(0) 0
B596(0) 0
B597(0) 0
B598(0) 0
B599(0) 0
B600(0) 0
B601(0) 0
B602(0) 0
B603(0) 0
B604(0) 0
B605(0) 0
B606(0) 0
B607(0) 0
B608(2) 0
B609(0) 0
B610(4) 0
B611(2) 0
B612(0) 0
B613(0) 0
B614(4) 0
B615(2) 1
B616(0) 0
B617(0) 0
B618(2) 0
B619(0) 0
B620(0) 0
B621(0) 0
B622(0) 0
B623(0) 0
B624(0) 0
B625(0) 0
B626(0) 0
B627(0) 0
B628(0) 0
B629(0) 0
B630(0) 0
B631(0) 0
B632(0) 0
B633(0) 0
B634(0) 0
B635(0) 0
B636(0) 0
B637(0) 0
B638(0) 0
B639(0) 0
B640(2) 0
B641(2) 0
B642(2) 0
B643(4) 0
B644(4) 0
B645(4) 0
B646(0) 0
B647(2) 0
B648(4) 1
B649(4) 0
B650(2) 0
B651(2) 0
B652(4) 0
B653(2) 0
B654(0) 0
B655(0) 0
B656(0) 0
B657(0) 0
B658(0) 0
B659(0) 0
B660(0) 0
B661(0) 0
B662(0) 0
B663(0) 0
B664(0) 0
B665(0) 0
B666(0) 0
B667(0) 0
B668(0) 0
B669(0) 0
B670(2) 1
B671(2) 1
B672(0) 0
B673(2) 0
B674(2) 0
B675(2) 0
B676(4) 0
B677(0) 0
B678(2) 0
B679(2) 0
B680(4) 0
B681(2) 0
B682(0) 0
B683(4) 0
B684(4) 0
B685(2) 0
B686(0) 0
B687(0) 0
B688(0) 0
B689(0) 0
B690(0) 0
B691(0) 0
B692(0) 0
B693(0) 0
B694(0) 0
B695(0) 0
B696(0) 0
B697(0) 0
B698(0) 0
B699(0) 0
B700(0) 0
B701(0) 0
B702(0) 0
B703(2) 1
B704(2) 1
B705(0) 0
B706(2) 1
B707(2) 0
B708(2) 1
B709(2) 0
B710(0) 0
B711(0) 0
B712(2) 0
B713(0) 0
B714(2) 0
B715(2) 1
B716(2) 0
B717(2) 0
B718(0) 0
B719(0) 0
B720(0) 0
B721(0) 0
B722(0) 0
B723(0) 0
B724(0) 0
B725(0) 0
B726(0) 0
B727(0) 0
B728(0) 0
B729(0) 0
B730(0) 0
B731(0) 0
B732(0) 0
B733(0) 0
B734(0) 0
B735(0) 0
B736(0) 0
B737(0) 0
B738(0) 0
B739(4) 1
B740(0) 0
B741(2) 0
B742(4) 1
B743(2) 1
B744(0) 0
B745(0) 0
B746(4) 1
B747(0) 0
B748(0) 0
B749(0) 0
B750(0) 0
B751(0) 0
B752(0) 0
B753(0) 0
B754(0) 0
B755(0) 0
B756(0) 0
B757(0) 0
B758(0) 0
B759(0) 0
B760(0) 0
B761(0) 0
B762(0) 0
B763(0) 0
B764(0) 0
B765(0) 0
B766(0) 0
B767(0) 0
B768(0) 0
B769(0) 0
B770(4) 0
B771(0) 0
B772(2) 1
B773(2) 0
B774(2) 0
B775(4) 0
B776(2) 0
B777(2) 0
B778(4) 0
B779(2) 0
B780(2) 0
B781(0) 0
B782(0) 0
B783(0) 0
B784(0) 0
B785(0) 0
B786(0) 0
B787(0) 0
B788(0) 0
B789(0) 0
B790(0) 0
B791(0) 0
B792(0) 0
B793(0) 0
B794(0) 0
B795(0) 0
B796(0) 0
B797(0) 0
B798(0) 0
B799(0) 0
B800(0) 0
B801(0) 0
B802(0) 0
B803(2) 0
B804(0) 0
B805(2) 0
B806(0) 0
B807(2) 0
B808(6) 0
B809(4) 0
B810(0) 0
B811(4) 1
B812(6) 0
B813(4) 0
B814(0) 0
B815(0) 0
B816(0) 0
B817(0) 0
B818(0) 0
B819(0) 0
B820(0) 0
B821(0) 0
B822(0) 0
B823(0) 0
B824(0) 0
B825(0) 0
B826(0) 0
B827(0) 0
B828(0) 0
B829(0) 0
B830(0) 0
B831(0) 0
B832(0) 0
B833(0) 0
B834(2) 1
B835(2) 1
B836(2) 1
B837(0) 0
B838(0) 0
B839(0) 0
B840(2) 0
B841(2) 0
B842(2) 0
B843(0) 0
B844(2) 0
B845(2) 0
B846(0) 0
B847(0) 0
B848(0) 0
B849(0) 0
B850(0) 0
B851(0) 0
B852(0) 0
B853(0) 0
B854(0) 0
B855(0) 0
B856(0) 0
B857(0) 0
B858(0) 0
B859(0) 0
B860(0) 0
B861(0) 0
B862(0) 0
B863(0) 0
B864(0) 0
B865(0) 0
B866(0) 0
B867(0) 0
B868(0) 0
B869(0) 0
B870(0) 0
B871(2) 0
B872(0) 0
B873(0) 0
B874(2) 0
B875(0) 0
B876(0) 0
B877(0) 0
B878(0) 0
B879(0) 0
B880(0) 0
B881(0) 0
B882(0) 0
B883(0) 0
B884(0) 0
B885(0) 0
B886(0) 0
B887(0) 0
B888(0) 0
B889(0) 0
B890(0) 0
B891(0) 0
B892(0) 0
B893(0) 0
B894(0) 0
B895(0) 0
B896(0) 0
B897(0) 0
B898(0) 0
B899(0) 0
B900(0) 0
B901(0) 0
B902(2) 1
B903(0) 0
B904(2) 0
B905(2) 0
B906(2) 0
B907(2) 0
B908(2) 0
B909(0) 0
B910(0) 0
B911(0) 0
B912(0) 0
B913(0) 0
B914(0) 0
B915(0) 0
B916(0) 0
B917(0) 0
B918(0) 0
B919(0) 0
B920(0) 0
B921(0) 0
B922(0) 0
B923(0) 0
B924(0) 0
B925(0) 0
B926(0) 0
B927(0) 0
B928(0) 0
B929(0) 0
B930(0) 0
B931(0) 0
B932(0) 0
B933(0) 0
B934(0) 0
B935(2) 1
B936(0) 0
B937(4) 0
B938(0) 0
B939(4) 0
B940(6) 0
B941(4) 0
B942(0) 0
B943(0) 0
B944(0) 0
B945(0) 0
B946(0) 0
B947(0) 0
B948(0) 0
B949(0) 0
B950(0) 0
B951(0) 0
B952(0) 0
B953(0) 0
B954(0) 0
B955(0) 0
B956(0) 0
B957(0) 0
B958(0) 0
B959(0) 0
B960(0) 0
B961(0) 0
B962(0) 0
B963(0) 0
B964(0) 0
B965(0) 0
B966(0) 0
B967(2) 1
B968(4) 1
B969(0) 0
B970(0) 0
B971(2) 0
B972(4) 0
B973(2) 0
B974(0) 0
B975(0) 0
B976(0) 0
B977(0) 0
B978(0) 0
B979(0) 0
B980(0) 0
B981(0) 0
B982(0) 0
B983(0) 0
B984(0) 0
B985(0) 0
B986(0) 0
B987(0) 0
B988(0) 0
B989(0) 0
B990(0) 0
B991(0) 0
B992(0) 0
B993(0) 0
B994(0) 0
B995(0) 0
B996(0) 0
B997(0) 0
B998(0) 0
B999(0) 0
B1000(0) 0
B1001(0) 0
B1002(0) 0
B1003(0) 0
B1004(0) 0
B1005(0) 0
B1006(0) 0
B1007(0) 0
B1008(0) 0
B1009(0) 0
B1010(0) 0
B1011(0) 0
B1012(0) 0
B1013(0) 0
B1014(0) 0
B1015(0) 0
B1016(0) 0
B1017(0) 0
B1018(0) 0
B1019(0) 0
B1020(0) 0
B1021(0) 0
B1022(0) 0
B1023(0) 0
B1024(0) 0
B1025(0) 0
B1026(0) 0
B1027(0) 0
B1028(0) 0
B1029(0) 0
B1030(0) 0
B1031(0) 0
B1032(0) 0
B1033(0) 0
B1034(0) 0
B1035(0) 0
B1036(0) 0
B1037(0) 0
B1038(0) 0
B1039(0) 0
B1040(0) 0
B1041(0) 0
B1042(0) 0
B1043(0) 0
B1044(0) 0
B1045(0) 0
B1046(0) 0
B1047(0) 0
B1048(0) 0
B1049(0) 0
B1050(0) 0
B1051(0) 0
B1052(0) 0
B1053(0) 0
B1054(0) 0
B1055(0) 0
B1056(0) 0
B1057(0) 0
B1058(0) 0
B1059(0) 0
B1060(0) 0
B1061(0) 0
B1062(0) 0
B1063(0) 0
B1064(0) 0
B1065(0) 0
B1066(0) 0
B1067(0) 0
B1068(0) 0
B1069(0) 0
B1070(0) 0
B1071(0) 0
B1072(0) 0
B1073(0) 0
B1074(0) 0
B1075(0) 0
B1076(0) 0
B1077(0) 0
B1078(0) 0
B1079(0) 0
B1080(0) 0
B1081(0) 0
B1082(0) 0
B1083(0) 0
B1084(0) 0
B1085(0) 0
B1086(0) 0
B1087(0) 0
B1088(0) 0
B1089(0) 0
B1090(0) 0
B1091(0) 0
B1092(0) 0
B1093(0) 0
B1094(0) 0
B1095(0) 0
B1096(0) 0
B1097(0) 0
B1098(0) 0
B1099(0) 0
B1100(0) 0
B1101(0) 0
I1102(13) 151
I1103(23) 0
I1104(25) 0
I1105(30) 0
I1106(26) 398
I1107(38) 0
I1108(30) 528
I1109(36) 0
I1110(38) 0
I1111(36) 0
I1112(30) 678
I1113(13) 0
I1114(27) 0
I1115(28) 0
I1116(22) 159
I1117(37) 0
I1118(31) 225
I1119(35) 0
I1120(37) 320
I1121(35) 0
I1122(12) 0
I1123(20) 80
I1124(34) 0
I1125(26) 0
I1126(28) 179
I1127(29) 0
I1128(35) 460
I1129(33) 0
I1130(32) 0
I1131(34) 560
I1132(12) 0
I1133(20) 0
I1134(25) 0
I1135(35) 65
I1136(26) 0
I1137(32) 340
I1138(36) 0
I1139(32) 489
I1140(22) 0
I1141(24) 0
I1142(12) 10
I1143(32) 138
I1144(28) 0
I1145(36) 0
I1146(37) 0
I1147(33) 0
I1148(25) 243
I1149(28) 343
I1150(32) 0
I1151(22) 0
I1152(28) 0
I1153(30) 10
I1154(32) 0
I1155(30) 164
I1156(38) 0
I1157(37) 0
I1158(31) 0
I1159(35) 287
I1160(30) 0
I1161(34) 480
I1162(27) 304
I1163(21) 0
I1164(29) 467
I1165(39) 0
I1166(40) 591
I1167(32) 0
I1168(36) 0
I1169(35) 0
I1170(39) 750
I1171(24) 0
I1172(24) 602
I1173(27) 859
I1174(33) 0
I1175(35) 1083
I1176(29) 0
I1177(33) 0
I1178(31) 0
I1179(27) 1228
I1180(1) 5953
